35
27
0 30 31 32 34
1 30 31 33
2 27 28 33
3 27 31 32 33
4
5 31 33 34
6 30 31 33
7 27 31
8 31 32 33
9 31 32 34
10 27 30 31
11
12 33 34
13 27 30 31 34
14 31 33 34
15 27 32
16 28 30
17 28 29 30
18 27 29 34
19 28 34
20 27 32
21 28 30 32 34
22 33
23 31 33
24 27 29 33
25 30
26
